Version identifier: 22.1.1.0 | 2022-11-28 | 9160aff4d
CPXPARAM_ClockType                               1
CPXPARAM_Read_DataCheck                          1
CPXPARAM_Threads                                 1
CPXPARAM_TimeLimit                               7200
CPXPARAM_MIP_Tolerances_AbsMIPGap                0
CPXPARAM_MIP_Tolerances_MIPGap                   0
CPXPARAM_MIP_Tolerances_Integrality              0
Tried aggregator 5 times.
MIP Presolve eliminated 32032 rows and 10344 columns.
MIP Presolve modified 3604 coefficients.
Aggregator did 2983 substitutions.
Reduced MIP has 10944 rows, 5501 columns, and 33786 nonzeros.
Reduced MIP has 5501 binaries, 0 generals, 0 SOSs, and 0 indicators.
Presolve time = 0.13 sec. (86.44 ticks)
Found incumbent of value -23268.000000 after 0.18 sec. (120.21 ticks)
Probing time = 0.01 sec. (5.61 ticks)
Tried aggregator 1 time.
Detecting symmetries...
MIP Presolve eliminated 0 rows and 1 columns.
Reduced MIP has 10944 rows, 5500 columns, and 33785 nonzeros.
Reduced MIP has 5500 binaries, 0 generals, 0 SOSs, and 0 indicators.
Presolve time = 0.04 sec. (24.30 ticks)
Probing time = 0.01 sec. (5.53 ticks)
Clique table members: 12268.
MIP emphasis: balance optimality and feasibility.
MIP search method: dynamic search.
Parallel mode: none, using 1 thread.
Root relaxation solution time = 1.02 sec. (644.82 ticks)

        Nodes                                         Cuts/
   Node  Left     Objective  IInf  Best Integer    Best Bound    ItCnt     Gap

*     0+    0                       -23268.0000    12350.0000           153.08%
      0     0     6175.0000  2604   -23268.0000     6175.0000     7403  126.54%
*     0+    0                         3708.0000     6175.0000            66.53%
      0     0     4813.6048  1412     3708.0000    Cuts: 1285    21564   29.82%
      0     0     4750.0000   848     3708.0000     Cuts: 260    23924   28.10%
*     0+    0                         4750.0000     4750.0000             0.00%
      0     0        cutoff           4750.0000     4750.0000    23924    0.00%
Elapsed time = 11.17 sec. (7527.23 ticks, tree = 0.01 MB, solutions = 3)

GUB cover cuts applied:  4
Clique cuts applied:  278
Cover cuts applied:  54
Implied bound cuts applied:  39
Flow cuts applied:  12
Mixed integer rounding cuts applied:  14
Zero-half cuts applied:  569
Lift and project cuts applied:  19
Gomory fractional cuts applied:  58

Root node processing (before b&c):
  Real time             =   11.17 sec. (7528.27 ticks)
Sequential b&c:
  Real time             =    0.00 sec. (0.00 ticks)
                          ------------
Total (root+branch&cut) =   11.17 sec. (7528.27 ticks)
Solution is feasible.

---------------------
@@@ MIP_optimal
>>> Benchmark mc2024_track1_180.cnf k 10 OPT 4750 TimeCost 22.933494329452515 TimeSolve 11.270414352416992 TimeRead 0.005995988845825195 TimeTrans 11.657083988189697
